45 45
6 6
1 7
3 6
7 1
3 10
7 2
3 3
6 7
4 2
10 1
1 3
9 1
6 4
5 1
9 7
6 4
1 8
4 3
10 7
1 1
3 8
5 3
3 1
8 4
9 7
2 6
10 9
1 1
6 7
3 2
7 4
3 4
9 5
3 6
6 3
6 6
7 7
4 5
7 4
4 8
5 6
6 4
1 1
5 10
7 3
17 15 56
15 19 94
12 18 88
18 16 56
16 16 92
12 17 99
10 17 76
20 11 86
20 10 82
20 14 59
15 19 67
12 17 52
10 13 96
16 19 71
16 20 68
10 10 71
12 16 95
15 18 78
18 14 79
12 12 73
15 18 77
17 20 96
20 17 88
17 15 56
16 12 96
10 14 97
13 20 60
20 13 58
11 20 56
17 16 85
20 20 56
14 20 78
10 15 74
17 12 90
19 18 76
13 12 90
17 11 81
14 19 92
12 20 64
17 18 93
15 10 65
14 17 74
16 15 71
11 15 61
14 13 56
